RAW/XQ/fspd-mid/X-n167-k10.vrp_seed-1.out
17291	96.367	154.023
