RAW/XQ/fspd-mid/X-n167-k10.vrp_seed-1.sol
Route #1: 103 152 121 79 30 46 140 119 15 159 17 96 14 85 128 62 162 9 157 134 86
Route #2: 130 143 71 113 60 158 82 120 39 11 141 70 133 24 31 40 50 19 142 132 154 54 87
Route #3: 99 5
Route #4: 137 73 22 83 69 155 56 58 61 127 126 47 118 93 25 7 6 89 67
Route #5: 3 21 149 160 75 95 59 112 53 32 72 10 51 146 84 37 136 114 2 29 28 16 109 4 131 151 55 92 44
Route #6: 42 76 23 139 27 108 102 100 135 150 98 45 81 164 34 65 110 101 36 105 80 18 144 124 63
Route #7: 123 35 26 165 78 41 74 33 106 166 94 90 161 91 117 43 66 125 156 52
Route #8: 38 115 97 148 116 153 8 129 145 163 88 111 122 1 13 77 57 12 104 107 64 49 147 20 138 68 48
Cost 17291.000000